data/solutions/recovery/wellformed/intermediate/binding/wellformed_intermediate_instance73/22.sol
Elapsed time: 0.05
Upper bound: 4562.0
Planning weighted value: 204183997.0
C[0]=4562.0
C[1]=4502.0
C[2]=4323.0
C[3]=4255.0
C[4]=4200.0
C[5]=4074.0
C[6]=3882.0
C[7]=3458.0
C[8]=3195.0
C[9]=3121.0
C[10]=3100.0
C[11]=3096.0
C[12]=3083.0
C[13]=3061.0
C[14]=2650.0
C[15]=0.0
y[0]=0
y[1]=2
y[2]=5
y[3]=14
y[4]=2
y[5]=12
y[6]=5
y[7]=4
y[8]=9
y[9]=10
y[10]=9
y[11]=8
y[12]=1
y[13]=7
y[14]=11
y[15]=9
y[16]=4
y[17]=11
y[18]=5
y[19]=8
y[20]=12
y[21]=0
y[22]=10
y[23]=6
y[24]=13
y[25]=0
y[26]=9
y[27]=11
y[28]=6
y[29]=4
y[30]=5
y[31]=9
y[32]=3
y[33]=3
y[34]=5
y[35]=9
y[36]=14
y[37]=13
y[38]=3
y[39]=0
y[40]=4
y[41]=13
y[42]=13
y[43]=2
y[44]=5
y[45]=0
y[46]=11
y[47]=3
y[48]=5
y[49]=5
y[50]=1
y[51]=14
y[52]=13
y[53]=4
y[54]=3
y[55]=14
y[56]=1
y[57]=7
y[58]=8
y[59]=8
y[60]=12
y[61]=3
y[62]=9
y[63]=6
y[64]=3
y[65]=0
y[66]=2
y[67]=8
y[68]=3
y[69]=3
y[70]=9
y[71]=3
y[72]=6
y[73]=13
y[74]=3
y[75]=7
y[76]=14
y[77]=0
y[78]=0
y[79]=7
y[80]=4
y[81]=1
y[82]=13
y[83]=12
y[84]=12
y[85]=11
y[86]=5
y[87]=11
y[88]=14
y[89]=7
y[90]=10
y[91]=0
y[92]=10
y[93]=8
y[94]=3
y[95]=13
y[96]=12
y[97]=7
y[98]=9
y[99]=0
y[100]=2
y[101]=7
y[102]=8
y[103]=4
y[104]=1
y[105]=6
y[106]=3
y[107]=4
